c Random generated cnf formula, satisfiable: true
p cnf 10 50
-7 6 2 0
-7 -2 -1 0
10 4 6 0
-4 -5 2 0
-8 6 1 0
-10 -1 2 0
-7 -5 -9 0
3 2 -10 0
-1 8 -4 0
10 5 -1 0
-10 9 6 0
5 -6 -4 0
1 -9 4 0
5 -2 -6 0
-8 9 10 0
-1 -7 -5 0
-3 1 4 0
5 -3 10 0
-9 -4 -3 0
5 3 2 0
-4 8 10 0
1 2 3 0
9 -1 2 0
5 9 -10 0
-1 3 9 0
7 -4 -10 0
-10 -9 -6 0
4 -6 3 0
-8 -1 7 0
-4 6 9 0
7 10 -8 0
4 3 7 0
5 -3 -4 0
7 -6 9 0
4 9 8 0
9 -7 4 0
5 2 -10 0
4 9 -3 0
8 -2 -1 0
-8 9 -10 0
-4 6 9 0
-5 8 6 0
5 7 -9 0
6 1 -7 0
4 -3 -5 0
-6 -8 9 0
-3 6 -1 0
-4 3 -8 0
-2 -8 -7 0
3 -9 -10 0
